c
c sat or unsat = sat
c variables = 30
c clauses = 83
c
c Randomly generated 3-SAT SAT formula
p cnf 30 83
 1   2   3 0
-1  -2  -3 0
 4   5   6 0
-4  -5  -6 0
 7   8   9 0
-7  -8  -9 0
10  11  12 0
-10 -11 -12 0
13  14  15 0
-13 -14 -15 0
16  17  18 0
-16 -17 -18 0
19  20  21 0
-19 -20 -21 0
22  23  24 0
-22 -23 -24 0
25  26  27 0
-25 -26 -27 0
28  29  30 0
-28 -29 -30 0
 1  -4   7 0
-1   4  -7 0
 2  -5   8 0
-2   5  -8 0
 3  -6   9 0
-3   6  -9 0
10  -13  16 0
-10  13 -16 0
11  -14  17 0
-11  14 -17 0
12  -15  18 0
-12  15 -18 0
19  -22  25 0
-19  22 -25 0
20  -23  26 0
-20  23 -26 0
21  -24  27 0
-21  24 -27 0
28  -1   2 0
-28   1  -2 0
29  -3   4 0
-29   3  -4 0
30  -5   6 0
-30   5  -6 0
 7  -10  13 0
-7   10 -13 0
 8  -11  14 0
-8   11 -14 0
 9  -12  15 0
-9   12 -15 0
16  -19  22 0
-16  19 -22 0
17  -20  23 0
-17  20 -23 0
18  -21  24 0
-18  21 -24 0
25  -28  1 0
-25  28 -1 0
26  -29  3 0
-26  29 -3 0
27  -30  5 0
-27  30 -5 0
 2  -7  10 0
-2   7 -10 0
 4  -9  12 0
-4   9 -12 0
 6  -11  14 0
-6   11 -14 0
 8  -13  16 0
-8   13 -16 0
10  -15  18 0
-10  15 -18 0
12  -17  20 0
-12  17 -20 0
14  -19  22 0
-14  19 -22 0
16  -21  24 0
-16  21 -24 0
18  -23  26 0
-18  23 -26 0
20  -25  28 0
-20  25 -28 0
22  -27  30 0
-22  27 -30 0